32	3
17	19	15
0	0	0	0	1	2
5	8	7	7	1	3
5	6	3	1	2	4	6
5	1	1	10	3	5	8	9
3	1	5	4	2	7	11
7	6	8	7	2	7	8
8	2	8	2	1	10
9	6	7	11	1	10
1	1	1	1	1	10
4	10	3	1	1	12
8	1	8	1	1	12
2	3	1	1	2	13	14
6	1	1	3	1	15
7	6	1	1	1	15
5	1	5	1	1	16
4	1	7	1	1	17
5	1	5	7	1	18
3	2	1	6	1	19
6	1	6	7	1	20
6	7	8	2	1	21
9	1	1	4	1	22
3	2	11	1	1	23
5	1	6	7	1	24
5	6	1	1	1	25
3	1	5	8	1	26
4	12	8	2	1	27
7	11	1	1	1	28
7	10	10	7	1	29
9	2	10	1	2	30	31
8	12	1	6	1	32
8	5	3	1	1	32
0	0	0	0	0
